
Gurobi 10.0.1 (win64) logging started Sun Sep 17 11:27:58 2023

Set parameter LogFile to value "./results-heuristic-start//log/FTQL_deadline.log"
Gurobi Optimizer version 10.0.1 build v10.0.1rc0 (win64)

CPU model: AMD Ryzen 7 3700X 8-Core Processor, instruction set [SSE2|AVX|AVX2]
Thread count: 8 physical cores, 16 logical processors, using up to 16 threads

Optimize a model with 204 rows, 630 columns and 683 nonzeros
Model fingerprint: 0xffc6c7cd
Model has 1 quadratic constraint
Variable types: 24 continuous, 606 integer (605 binary)
Coefficient statistics:
  Matrix range     [1e+00, 1e+06]
  QMatrix range    [1e+00, 1e+00]
  QLMatrix range   [1e+00, 4e+03]
  Objective range  [1e+00, 1e+00]
  Bounds range     [1e+00, 1e+00]
  RHS range        [1e+00, 3e+06]

Warning: Completing partial solution with 582 unfixed non-continuous variables out of 606
User MIP start did not produce a new incumbent solution
User MIP start violates constraint initial_start_time_job0_stage0_machine4_constraint by 420.000000000

Presolve removed 86 rows and 556 columns
Presolve time: 0.00s
Presolved: 118 rows, 74 columns, 338 nonzeros
Variable types: 24 continuous, 50 integer (49 binary)
Found heuristic solution: objective 89271.000000
Found heuristic solution: objective 86748.000000

Root relaxation: objective 2.400000e+04, 36 iterations, 0.00 seconds (0.00 work units)

    Nodes    |    Current Node    |     Objective Bounds      |     Work
 Expl Unexpl |  Obj  Depth IntInf | Incumbent    BestBd   Gap | It/Node Time

     0     0 24000.0000    0   27 86748.0000 24000.0000  72.3%     -    0s
Another try with MIP start
H    0     0                    71162.000000 26999.0000  62.1%     -    0s
H    0     0                    64184.000000 26999.0000  57.9%     -    0s
H    0     0                    56762.000000 26999.0000  52.4%     -    0s
H    0     0                    55401.000000 29855.0000  46.1%     -    0s
     0     0 37840.0000    0   22 55401.0000 37840.0000  31.7%     -    0s
     0     0 37940.0000    0   17 55401.0000 37940.0000  31.5%     -    0s
     0     0 37940.0000    0   19 55401.0000 37940.0000  31.5%     -    0s
     0     0 37959.8750    0   18 55401.0000 37959.8750  31.5%     -    0s
H    0     0                    55399.000000 37959.8750  31.5%     -    0s
H    0     0                    55310.000000 37959.8750  31.4%     -    0s
     0     0 37960.4616    0   24 55310.0000 37960.4616  31.4%     -    0s
     0     0 37960.4616    0   24 55310.0000 37960.4616  31.4%     -    0s
     0     0 37982.9858    0   22 55310.0000 37982.9858  31.3%     -    0s
H    0     0                    55309.000000 37982.9858  31.3%     -    0s
H    0     0                    55098.000000 37982.9858  31.1%     -    0s
H    0     0                    51982.000000 37986.0479  26.9%     -    0s
H    0     0                    48545.000000 37986.0479  21.8%     -    0s
     0     0 37986.0479    0   20 48545.0000 37986.0479  21.8%     -    0s
     0     0 38009.8703    0   23 48545.0000 38009.8703  21.7%     -    0s
H    0     0                    48544.000000 38009.8703  21.7%     -    0s
H    0     0                    48249.000000 38009.8703  21.2%     -    0s
     0     0 38332.0000    0   22 48249.0000 38332.0000  20.6%     -    0s
     0     0 38332.0000    0   26 48249.0000 38332.0000  20.6%     -    0s
     0     0 38456.0000    0   26 48249.0000 38456.0000  20.3%     -    0s
     0     0 38857.0000    0   26 48249.0000 38857.0000  19.5%     -    0s
     0     1 38857.0000    0   26 48249.0000 38857.0000  19.5%     -    0s
H   35    36                    48009.000000 38857.0000  19.1%  18.0    0s
*  225    78              16    47849.000000 40019.3874  16.4%   9.9    0s
H  265    75                    47572.000000 40040.6876  15.8%   9.6    0s

Cutting planes:
  Gomory: 14
  Implied bound: 21
  MIR: 20
  RLT: 38
  Relax-and-lift: 25

Explored 849 nodes (6535 simplex iterations) in 0.13 seconds (0.07 work units)
Thread count was 16 (of 16 available processors)

Solution count 10: 47572 47572 47849 ... 55309

Optimal solution found (tolerance 1.00e-04)
Best objective 4.757200000000e+04, best bound 4.757200000000e+04, gap 0.0000%
Warning: constraint name "precedence between 1,1 to 0,0 if x_[j,l,h,z,i]=1" has a space
Warning: constraint name "precedence between 1,1 to 0,0 if x_[j,l,h,z,i]=1" has a space
Warning: default constraint names used to write mps file
